set Z;
 set Y;
 param A{r in Z, m in Y} default 0, binary;
param B{r in Z} default 1, integer;
 var Route{m in Y}, binary;
 minimize cost: sum{m in Y} Route[m];
 subject to covers{r in Z}: sum{m in Y} A[r,m]*Route[m]>=B[r];
 solve; 
 printf {m in Y:  Route[m] == 1} "%s ", m > "C:/Users/Guilherme/Documents/GitHub/SirisOnRails/Results.txt";
 data;
set Z:= Z1 Z2 Z3 Z4 Z5 Z6 Z7 Z8 Z9 Z10 Z11 Z12 Z13 Z14 Z15 Z16 Z17 Z18 Z19 Z20 Z21 Z22 Z23 Z24 Z25 Z26 Z27 Z28 Z29 Z30 Z31 Z32 Z33 Z34 Z35 Z36 Z37 Z38 Z39 Z40 Z41 Z42 Z43 Z44 Z45 Z46 Z47 Z48 Z49 Z50 Z51 Z52 Z53 Z54 Z55 Z56 Z57 Z58 Z59 Z60 Z61 Z62 Z63 Z64 Z65 Z66 Z67 Z68 Z69 Z70 Z71 Z72 Z73 Z74 Z75 Z76 Z77 Z78 Z79 Z80 Z81 Z82 Z83 Z84 Z85 Z86 Z87 Z88 Z89 Z90 Z91 Z92 Z93 Z94 Z95 Z96 Z97 Z98 Z99 Z100 Z101 Z102 Z103 Z104 Z105 Z106 Z107 Z108 Z109 Z110 Z111 Z112 Z113 Z114 Z115 Z116 Z117 Z118 Z119 Z120 Z121 Z122 Z123 Z124 Z125 Z126 Z127 Z128 Z129 Z130 Z131 Z132 Z133 Z134 Z135 Z136 Z137 Z138 Z139 Z140 Z141 Z142 Z143 Z144 Z145 Z146 Z147 Z148 Z149 Z150 Z151 Z152 Z153 Z154 Z155 Z156 Z157 Z158 Z159 Z160 Z161 Z162 Z163 Z164 Z165 Z166 Z167 Z168 Z169 Z170 Z171 Z172 Z173 Z174 Z175 Z176 Z177 Z178 Z179 Z180 Z181 Z182 Z183 Z184 Z185 Z186 Z187 Z188 Z189 Z190 Z191 Z192 Z193 Z194 Z195 Z196 Z197 Z198 Z199 Z200 Z201 Z202 Z203 Z204 Z205 Z206 Z207 Z208 Z209 Z210 Z211 Z212 Z213 Z214 Z215 Z216 Z217 Z218 Z219 Z220 Z221 Z222 Z223 Z224 Z225 Z226 Z227 Z228 Z229 Z230 Z231 Z232 Z233 Z234 Z235 Z236 Z237 Z238 Z239 Z240 Z241 Z242 Z243 Z244 Z245 Z246 Z247 Z248 Z249 Z250 Z251 Z252 Z253 Z254 Z255 Z256 Z257 Z258 Z259 Z260 Z261 Z262 Z263 Z264 Z265 Z266 Z267 Z268 Z269 Z270 Z271 Z272 Z273 Z274 Z275 Z276 Z277 Z278 Z279 Z280 Z281 Z282 Z283 Z284 Z285 Z286 Z287 Z288 Z289 Z290 Z291 Z292 Z293 Z294 Z295 Z296 Z297 Z298 Z299 Z300 Z301 Z302 Z303 Z304 Z305 Z306 Z307 Z308 Z309 Z310 Z311 Z312 Z313 Z314 Z315 Z316 Z317 Z318 Z319 Z320 Z321 Z322 Z323 Z324 Z325 Z326 Z327 Z328 Z329 Z330 Z331 Z332 Z333 Z334 Z335 Z336 Z337 Z338 Z339 Z340 Z341 Z342 Z343 Z344 Z345 Z346 Z347 Z348 Z349 Z350 Z351 Z352 Z353 Z354 Z355 Z356 Z357 Z358 Z359 Z360 Z361 Z362 Z363 Z364 Z365 Z366 Z367 Z368 Z369 Z370 Z371 Z372 Z373 Z374 Z375 Z376 Z377 Z378 Z379 Z380 Z381 Z382 Z383 Z384 Z385 Z386 Z387 Z388 Z389 Z390 Z391 Z392 Z393 Z394 Z395 Z396 Z397 Z398 Z399 Z400 Z401 Z402 Z403 Z404 Z405 Z406 Z407 Z408 Z409 Z410 Z411 Z412 Z413 Z414 Z415 Z416 Z417 Z418 Z419 Z420 Z421 Z422 Z423 Z424 Z425 Z426 Z427 Z428 Z429 Z430 Z431 Z432 Z433 Z434 Z435 Z436 Z437 Z438 Z439 Z440 Z441 Z442 Z443 Z444 Z445 Z446 Z447 Z448 Z449 Z450 Z451 Z452 Z453 Z454 Z455 Z456 Z457 Z458 Z459 Z460 Z461 Z462 Z463 Z464 Z465 Z466 Z467 Z468 Z469 Z470 Z471 Z472 Z473 Z474 Z475 Z476 Z477 Z478 Z479 Z480 Z481 Z482 Z483 Z484 Z485 Z486 Z487 Z488 Z489 Z490 Z491 Z492 Z493 Z494 Z495 Z496 Z497 Z498 Z499 Z500 Z501 Z502 Z503 Z504 Z505 Z506 Z507 Z508 Z509 Z510 Z511 Z512 Z513 Z514 Z515 Z516 Z517 Z518 Z519 Z520 Z521 Z522 Z523 Z524 Z525 Z526 Z527 Z528 Z529 Z530 Z531 Z532 Z533 Z534 Z535 Z536 Z537 Z538 Z539 Z540 Z541 Z542 Z543 Z544 Z545 Z546 Z547 Z548 Z549 Z550 Z551 Z552 Z553 Z554 Z555 Z556 Z557 Z558 Z559 Z560 Z561 Z562 Z563 Z564 Z565 Z566 Z567 Z568 Z569 Z570 Z571 Z572 Z573 Z574 Z575 Z576 Z577 Z578 Z579 Z580 Z581 Z582 Z583 Z584 Z585 Z586 Z587 Z588 Z589 Z590 Z591 Z592 Z593 Z594 Z595 Z596 Z597 Z598 Z599 Z600 Z601 Z602 Z603 Z604 Z605 Z606 Z607 Z608 Z609 Z610 Z611 Z612 Z613 Z614 Z615 Z616 Z617 Z618 Z619 Z620 Z621 Z622 Z623 Z624 Z625 Z626 Z627 Z628 Z629 Z630 Z631 Z632 Z633 Z634 Z635 Z636 Z637 Z638 Z639 Z640 Z641 Z642 Z643 Z644 Z645 Z646 Z647 Z648 Z649 Z650 Z651 Z652 Z653 Z654 Z655 Z656 Z657 Z658 Z659 Z660 Z661 Z662 Z663 Z664 Z665 Z666 Z667 Z668 Z669 Z670 Z671 Z672 Z673 Z674 Z675 Z676 Z677 Z678 Z679 Z680 Z681 Z682 Z683 Z684 Z685 Z686 Z687 Z688 Z689 Z690 Z691 Z692 Z693 Z694 Z695 Z696 Z697 Z698 Z699 Z700 Z701 Z702 Z703 Z704 Z705 Z706 Z707 Z708 Z709 Z710 Z711 Z712 Z713 Z714 Z715 Z716 Z717 Z718 Z719 Z720 Z721 Z722 Z723 Z724 Z725 Z726 Z727 Z728 Z729 Z730 Z731 Z732 Z733 Z734 Z735 Z736 Z737 Z738 Z739 Z740 Z741 Z742 Z743 Z744 Z745 Z746 Z747 Z748 Z749 Z750 Z751 Z752 Z753 Z754 Z755 Z756 Z757 Z758 Z759 Z760 Z761 Z762 Z763 Z764 Z765 Z766 Z767 Z768 Z769 Z770 Z771 Z772 Z773 Z774 Z775 Z776 Z777 Z778 Z779 Z780 Z781 Z782 Z783 Z784 Z785 Z786 Z787 Z788 Z789 Z790 Z791 Z792 Z793 Z794 Z795 Z796 Z797 Z798 Z799 Z800 Z801 Z802 Z803 Z804 Z805 Z806 Z807 Z808 Z809 Z810 Z811 Z812 Z813 Z814 Z815 Z816 Z817 Z818 Z819 Z820 Z821 Z822 Z823 Z824 Z825 Z826 Z827 Z828 Z829 Z830 Z831 Z832 Z833 Z834 Z835 Z836 Z837 Z838 Z839 Z840 Z841 Z842 Z843 Z844 Z845 Z846 Z847 Z848 Z849 Z850 Z851 Z852 Z853 Z854 Z855 Z856 Z857 Z858 Z859 Z860 Z861 Z862 Z863 Z864 Z865 Z866 Z867 Z868 Z869 Z870 Z871 Z872 Z873 Z874 Z875 Z876 Z877 Z878 Z879 Z880 Z881 Z882 Z883 Z884 Z885 Z886 Z887 Z888 Z889 Z890 Z891 Z892 Z893 Z894 Z895 Z896 Z897 Z898 Z899 Z900 Z901 Z902 Z903 Z904 Z905 Z906 Z907 Z908 Z909 Z910 Z911 Z912 Z913 Z914 Z915 Z916 Z917 Z918 Z919 Z920 Z921 Z922 Z923 Z924 Z925 Z926 Z927 Z928 Z929 Z930 Z931 Z932 Z933 Z934 Z935 Z936 Z937 Z938 Z939 Z940 Z941 Z942 Z943 Z944 Z945 Z946 Z947 Z948 Z949 Z950 Z951 Z952 Z953 Z954 Z955 Z956 Z957 Z958 Z959 Z960 Z961 Z962 Z963 Z964 Z965 Z966 Z967 Z968 Z969 Z970 Z971 Z972 Z973 Z974 Z975 Z976 Z977 Z978 Z979 Z980 Z981 Z982 Z983 Z984 Z985 Z986 Z987 Z988 Z989 Z990 Z991 Z992 Z993 Z994 Z995 Z996 Z997 Z998 ;
set Y:= Y1 Y2 Y3 Y4 Y5 Y6 Y7 Y8 Y9 Y10 Y11 Y12 Y13 Y14 Y15 Y16 Y17 Y18 Y19 Y20 Y21 Y22 Y23 Y24 Y25 Y26 Y27 Y28 Y29 Y30 Y31 Y32 Y33 Y34 Y35 Y36 Y37 Y38 Y39 Y40 Y41 Y42 Y43 Y44 Y45 Y46 Y47 Y48 Y49 Y50 Y51 Y52 Y53 Y54 Y55 Y56 Y57 Y58 Y59 Y60 Y61 Y62 Y63 Y64 Y65 Y66 Y67 Y68 Y69 Y70 Y71 Y72 ;
param A := 
[Z1,Y1] 1[Z2,Y2] 1[Z3,Y2] 1[Z4,Y3] 1[Z5,Y3] 1[Z6,Y3] 1[Z7,Y3] 1[Z8,Y3] 1[Z9,Y3] 1[Z10,Y3] 1[Z11,Y3] 1[Z12,Y3] 1[Z13,Y3] 1[Z14,Y3] 1[Z15,Y3] 1[Z16,Y3] 1[Z17,Y4] 1[Z18,Y4] 1[Z19,Y4] 1[Z20,Y4] 1[Z20,Y5] 1[Z21,Y4] 1[Z22,Y4] 1[Z23,Y4] 1[Z23,Y5] 1[Z24,Y4] 1[Z24,Y5] 1[Z25,Y4] 1[Z25,Y5] 1[Z26,Y4] 1[Z27,Y4] 1[Z28,Y4] 1[Z28,Y5] 1[Z29,Y4] 1[Z30,Y4] 1[Z30,Y5] 1[Z31,Y4] 1[Z31,Y5] 1[Z32,Y4] 1[Z32,Y5] 1[Z33,Y4] 1[Z34,Y5] 1[Z34,Y6] 1[Z35,Y5] 1[Z36,Y5] 1[Z37,Y5] 1[Z37,Y6] 1[Z38,Y5] 1[Z39,Y4] 1[Z39,Y5] 1[Z40,Y5] 1[Z41,Y5] 1[Z42,Y5] 1[Z43,Y5] 1[Z44,Y5] 1[Z44,Y6] 1[Z45,Y4] 1[Z45,Y5] 1[Z46,Y4] 1[Z46,Y5] 1[Z47,Y5] 1[Z48,Y4] 1[Z48,Y5] 1[Z48,Y6] 1[Z49,Y5] 1[Z49,Y6] 1[Z50,Y5] 1[Z51,Y4] 1[Z51,Y5] 1[Z52,Y4] 1[Z52,Y5] 1[Z53,Y6] 1[Z54,Y6] 1[Z55,Y7] 1[Z56,Y8] 1[Z56,Y10] 1[Z57,Y8] 1[Z58,Y8] 1[Z58,Y10] 1[Z59,Y9] 1[Z60,Y9] 1[Z61,Y9] 1[Z62,Y9] 1[Z63,Y9] 1[Z64,Y9] 1[Z65,Y9] 1[Z66,Y9] 1[Z67,Y9] 1[Z68,Y9] 1[Z69,Y9] 1[Z70,Y9] 1[Z71,Y9] 1[Z72,Y9] 1[Z73,Y9] 1[Z74,Y9] 1[Z75,Y9] 1[Z76,Y9] 1[Z77,Y9] 1[Z78,Y9] 1[Z79,Y9] 1[Z80,Y9] 1[Z81,Y9] 1[Z82,Y9] 1[Z83,Y9] 1[Z84,Y9] 1[Z85,Y9] 1[Z86,Y9] 1[Z87,Y9] 1[Z88,Y9] 1[Z89,Y9] 1[Z90,Y9] 1[Z91,Y9] 1[Z92,Y9] 1[Z93,Y9] 1[Z94,Y9] 1[Z95,Y9] 1[Z96,Y9] 1[Z97,Y9] 1[Z98,Y9] 1[Z99,Y9] 1[Z100,Y9] 1[Z101,Y9] 1[Z102,Y9] 1[Z103,Y9] 1[Z104,Y9] 1[Z105,Y9] 1[Z106,Y9] 1[Z107,Y9] 1[Z108,Y9] 1[Z109,Y9] 1[Z110,Y9] 1[Z111,Y9] 1[Z112,Y9] 1[Z113,Y9] 1[Z114,Y9] 1[Z115,Y9] 1[Z116,Y9] 1[Z117,Y9] 1[Z118,Y9] 1[Z119,Y9] 1[Z120,Y9] 1[Z121,Y9] 1[Z122,Y9] 1[Z123,Y9] 1[Z124,Y9] 1[Z125,Y9] 1[Z126,Y9] 1[Z127,Y9] 1[Z128,Y9] 1[Z129,Y9] 1[Z130,Y9] 1[Z131,Y9] 1[Z132,Y9] 1[Z133,Y9] 1[Z134,Y9] 1[Z135,Y9] 1[Z136,Y9] 1[Z137,Y9] 1[Z138,Y9] 1[Z139,Y9] 1[Z140,Y9] 1[Z141,Y9] 1[Z142,Y9] 1[Z143,Y9] 1[Z144,Y9] 1[Z145,Y9] 1[Z146,Y9] 1[Z147,Y9] 1[Z148,Y9] 1[Z149,Y9] 1[Z150,Y9] 1[Z151,Y9] 1[Z152,Y9] 1[Z153,Y9] 1[Z154,Y9] 1[Z155,Y9] 1[Z156,Y9] 1[Z157,Y8] 1[Z157,Y10] 1[Z158,Y8] 1[Z158,Y10] 1[Z159,Y8] 1[Z159,Y10] 1[Z160,Y8] 1[Z160,Y10] 1[Z161,Y8] 1[Z161,Y10] 1[Z162,Y8] 1[Z162,Y10] 1[Z163,Y10] 1[Z164,Y10] 1[Z165,Y8] 1[Z165,Y10] 1[Z166,Y8] 1[Z166,Y10] 1[Z167,Y8] 1[Z167,Y10] 1[Z168,Y8] 1[Z168,Y10] 1[Z169,Y8] 1[Z169,Y10] 1[Z170,Y10] 1[Z171,Y10] 1[Z172,Y8] 1[Z172,Y10] 1[Z173,Y10] 1[Z174,Y10] 1[Z175,Y10] 1[Z176,Y8] 1[Z176,Y10] 1[Z177,Y8] 1[Z177,Y10] 1[Z178,Y10] 1[Z179,Y8] 1[Z179,Y10] 1[Z180,Y10] 1[Z181,Y10] 1[Z182,Y8] 1[Z182,Y10] 1[Z183,Y8] 1[Z183,Y10] 1[Z184,Y8] 1[Z184,Y10] 1[Z185,Y8] 1[Z185,Y10] 1[Z186,Y8] 1[Z186,Y10] 1[Z187,Y10] 1[Z188,Y8] 1[Z188,Y10] 1[Z189,Y10] 1[Z190,Y10] 1[Z191,Y8] 1[Z191,Y10] 1[Z192,Y8] 1[Z192,Y10] 1[Z193,Y10] 1[Z194,Y8] 1[Z194,Y10] 1[Z195,Y8] 1[Z195,Y10] 1[Z196,Y8] 1[Z196,Y10] 1[Z197,Y8] 1[Z197,Y10] 1[Z198,Y8] 1[Z198,Y10] 1[Z199,Y8] 1[Z199,Y10] 1[Z200,Y10] 1[Z201,Y8] 1[Z201,Y10] 1[Z202,Y10] 1[Z203,Y8] 1[Z203,Y10] 1[Z204,Y10] 1[Z205,Y8] 1[Z205,Y10] 1[Z206,Y10] 1[Z207,Y8] 1[Z207,Y10] 1[Z208,Y10] 1[Z209,Y8] 1[Z209,Y10] 1[Z210,Y8] 1[Z210,Y10] 1[Z211,Y8] 1[Z211,Y10] 1[Z212,Y8] 1[Z212,Y10] 1[Z213,Y8] 1[Z213,Y10] 1[Z214,Y10] 1[Z215,Y8] 1[Z215,Y10] 1[Z216,Y8] 1[Z216,Y10] 1[Z217,Y8] 1[Z217,Y10] 1[Z218,Y8] 1[Z218,Y10] 1[Z219,Y8] 1[Z219,Y10] 1[Z220,Y10] 1[Z221,Y8] 1[Z221,Y10] 1[Z222,Y8] 1[Z222,Y10] 1[Z223,Y10] 1[Z224,Y10] 1[Z225,Y10] 1[Z226,Y8] 1[Z226,Y10] 1[Z227,Y8] 1[Z227,Y10] 1[Z228,Y8] 1[Z228,Y10] 1[Z229,Y8] 1[Z229,Y10] 1[Z230,Y10] 1[Z231,Y8] 1[Z231,Y10] 1[Z232,Y10] 1[Z233,Y8] 1[Z233,Y10] 1[Z234,Y10] 1[Z235,Y8] 1[Z235,Y10] 1[Z236,Y10] 1[Z237,Y8] 1[Z237,Y10] 1[Z238,Y8] 1[Z238,Y10] 1[Z239,Y8] 1[Z239,Y10] 1[Z240,Y10] 1[Z241,Y10] 1[Z242,Y8] 1[Z242,Y10] 1[Z243,Y8] 1[Z243,Y10] 1[Z244,Y10] 1[Z245,Y8] 1[Z245,Y10] 1[Z246,Y8] 1[Z246,Y10] 1[Z247,Y11] 1[Z248,Y11] 1[Z249,Y11] 1[Z250,Y7] 1[Z250,Y11] 1[Z251,Y11] 1[Z252,Y11] 1[Z253,Y11] 1[Z254,Y11] 1[Z255,Y11] 1[Z256,Y11] 1[Z257,Y11] 1[Z257,Y12] 1[Z258,Y11] 1[Z258,Y12] 1[Z259,Y11] 1[Z259,Y12] 1[Z260,Y12] 1[Z261,Y12] 1[Z262,Y12] 1[Z263,Y12] 1[Z264,Y12] 1[Z265,Y12] 1[Z266,Y11] 1[Z266,Y12] 1[Z267,Y12] 1[Z268,Y12] 1[Z269,Y12] 1[Z270,Y12] 1[Z271,Y13] 1[Z272,Y13] 1[Z273,Y13] 1[Z274,Y13] 1[Z275,Y13] 1[Z276,Y13] 1[Z277,Y13] 1[Z278,Y13] 1[Z279,Y13] 1[Z280,Y13] 1[Z281,Y13] 1[Z282,Y13] 1[Z283,Y13] 1[Z284,Y13] 1[Z285,Y13] 1[Z286,Y13] 1[Z287,Y13] 1[Z288,Y13] 1[Z289,Y13] 1[Z290,Y13] 1[Z291,Y13] 1[Z292,Y13] 1[Z293,Y13] 1[Z294,Y14] 1[Z295,Y14] 1[Z296,Y14] 1[Z297,Y14] 1[Z297,Y15] 1[Z298,Y15] 1[Z299,Y14] 1[Z299,Y15] 1[Z300,Y14] 1[Z300,Y15] 1[Z301,Y15] 1[Z302,Y15] 1[Z303,Y15] 1[Z304,Y14] 1[Z304,Y15] 1[Z305,Y14] 1[Z305,Y15] 1[Z306,Y15] 1[Z307,Y15] 1[Z308,Y15] 1[Z309,Y15] 1[Z310,Y14] 1[Z310,Y15] 1[Z311,Y14] 1[Z311,Y15] 1[Z312,Y15] 1[Z313,Y14] 1[Z313,Y15] 1[Z314,Y15] 1[Z315,Y15] 1[Z316,Y15] 1[Z317,Y15] 1[Z318,Y15] 1[Z319,Y15] 1[Z320,Y14] 1[Z320,Y15] 1[Z321,Y15] 1[Z322,Y15] 1[Z323,Y14] 1[Z323,Y15] 1[Z324,Y15] 1[Z325,Y14] 1[Z325,Y15] 1[Z326,Y15] 1[Z327,Y15] 1[Z328,Y15] 1[Z329,Y15] 1[Z330,Y15] 1[Z331,Y15] 1[Z332,Y15] 1[Z333,Y15] 1[Z334,Y15] 1[Z335,Y14] 1[Z335,Y15] 1[Z336,Y15] 1[Z337,Y16] 1[Z338,Y16] 1[Z339,Y16] 1[Z340,Y16] 1[Z341,Y16] 1[Z342,Y16] 1[Z343,Y16] 1[Z344,Y16] 1[Z345,Y16] 1[Z346,Y16] 1[Z347,Y16] 1[Z348,Y16] 1[Z349,Y16] 1[Z350,Y16] 1[Z351,Y16] 1[Z352,Y16] 1[Z353,Y16] 1[Z354,Y16] 1[Z355,Y16] 1[Z356,Y16] 1[Z357,Y16] 1[Z358,Y16] 1[Z359,Y16] 1[Z360,Y16] 1[Z361,Y16] 1[Z362,Y16] 1[Z363,Y16] 1[Z364,Y17] 1[Z365,Y17] 1[Z366,Y17] 1[Z367,Y17] 1[Z368,Y17] 1[Z369,Y17] 1[Z370,Y17] 1[Z371,Y17] 1[Z372,Y17] 1[Z373,Y17] 1[Z374,Y17] 1[Z375,Y17] 1[Z376,Y17] 1[Z377,Y17] 1[Z378,Y17] 1[Z379,Y17] 1[Z380,Y17] 1[Z381,Y17] 1[Z382,Y17] 1[Z383,Y17] 1[Z384,Y17] 1[Z385,Y17] 1[Z386,Y17] 1[Z387,Y17] 1[Z388,Y17] 1[Z389,Y17] 1[Z390,Y17] 1[Z391,Y17] 1[Z392,Y17] 1[Z393,Y17] 1[Z394,Y17] 1[Z395,Y17] 1[Z396,Y17] 1[Z397,Y17] 1[Z398,Y17] 1[Z399,Y17] 1[Z400,Y18] 1[Z401,Y18] 1[Z402,Y18] 1[Z403,Y18] 1[Z404,Y18] 1[Z405,Y18] 1[Z406,Y18] 1[Z407,Y18] 1[Z408,Y18] 1[Z409,Y19] 1[Z410,Y19] 1[Z411,Y19] 1[Z412,Y19] 1[Z413,Y19] 1[Z414,Y19] 1[Z415,Y20] 1[Z416,Y20] 1[Z417,Y20] 1[Z418,Y20] 1[Z419,Y20] 1[Z420,Y21] 1[Z421,Y21] 1[Z422,Y21] 1[Z423,Y21] 1[Z424,Y21] 1[Z425,Y21] 1[Z426,Y21] 1[Z427,Y21] 1[Z428,Y21] 1[Z429,Y21] 1[Z430,Y21] 1[Z431,Y22] 1[Z432,Y22] 1[Z432,Y23] 1[Z433,Y22] 1[Z433,Y23] 1[Z434,Y23] 1[Z435,Y23] 1[Z436,Y22] 1[Z436,Y23] 1[Z437,Y23] 1[Z438,Y22] 1[Z438,Y23] 1[Z439,Y23] 1[Z440,Y22] 1[Z440,Y23] 1[Z441,Y23] 1[Z442,Y23] 1[Z443,Y22] 1[Z443,Y23] 1[Z444,Y22] 1[Z444,Y23] 1[Z445,Y22] 1[Z445,Y23] 1[Z446,Y22] 1[Z446,Y23] 1[Z447,Y22] 1[Z447,Y23] 1[Z448,Y23] 1[Z449,Y22] 1[Z449,Y23] 1[Z450,Y23] 1[Z451,Y22] 1[Z451,Y23] 1[Z452,Y23] 1[Z453,Y22] 1[Z453,Y23] 1[Z454,Y23] 1[Z455,Y23] 1[Z456,Y23] 1[Z457,Y23] 1[Z458,Y23] 1[Z459,Y22] 1[Z459,Y23] 1[Z460,Y22] 1[Z460,Y23] 1[Z461,Y24] 1[Z461,Y25] 1[Z462,Y24] 1[Z463,Y24] 1[Z464,Y24] 1[Z465,Y24] 1[Z465,Y25] 1[Z466,Y24] 1[Z467,Y24] 1[Z468,Y24] 1[Z469,Y24] 1[Z469,Y25] 1[Z470,Y24] 1[Z471,Y24] 1[Z471,Y25] 1[Z472,Y24] 1[Z473,Y24] 1[Z473,Y25] 1[Z474,Y24] 1[Z475,Y24] 1[Z475,Y25] 1[Z476,Y24] 1[Z477,Y24] 1[Z477,Y25] 1[Z478,Y24] 1[Z478,Y25] 1[Z479,Y24] 1[Z480,Y24] 1[Z480,Y25] 1[Z481,Y24] 1[Z482,Y24] 1[Z482,Y25] 1[Z483,Y24] 1[Z484,Y24] 1[Z484,Y25] 1[Z485,Y24] 1[Z485,Y25] 1[Z486,Y24] 1[Z486,Y25] 1[Z487,Y24] 1[Z488,Y24] 1[Z489,Y24] 1[Z490,Y24] 1[Z490,Y25] 1[Z491,Y23] 1[Z491,Y24] 1[Z492,Y24] 1[Z493,Y24] 1[Z494,Y24] 1[Z494,Y25] 1[Z495,Y24] 1[Z495,Y25] 1[Z496,Y24] 1[Z497,Y24] 1[Z498,Y24] 1[Z499,Y24] 1[Z500,Y24] 1[Z501,Y24] 1[Z502,Y24] 1[Z502,Y25] 1[Z503,Y24] 1[Z503,Y25] 1[Z504,Y24] 1[Z505,Y24] 1[Z506,Y25] 1[Z507,Y26] 1[Z508,Y26] 1[Z509,Y26] 1[Z510,Y26] 1[Z511,Y26] 1[Z512,Y26] 1[Z513,Y26] 1[Z514,Y26] 1[Z515,Y26] 1[Z516,Y27] 1[Z517,Y28] 1[Z518,Y28] 1[Z519,Y29] 1[Z519,Y43] 1[Z520,Y30] 1[Z521,Y31] 1[Z522,Y32] 1[Z522,Y33] 1[Z522,Y36] 1[Z523,Y33] 1[Z524,Y32] 1[Z524,Y33] 1[Z524,Y36] 1[Z524,Y60] 1[Z525,Y33] 1[Z526,Y32] 1[Z526,Y33] 1[Z527,Y33] 1[Z528,Y33] 1[Z528,Y60] 1[Z529,Y32] 1[Z529,Y33] 1[Z530,Y32] 1[Z530,Y33] 1[Z530,Y36] 1[Z530,Y60] 1[Z531,Y33] 1[Z532,Y32] 1[Z532,Y33] 1[Z532,Y36] 1[Z533,Y32] 1[Z533,Y33] 1[Z533,Y36] 1[Z533,Y60] 1[Z534,Y32] 1[Z534,Y33] 1[Z534,Y36] 1[Z535,Y33] 1[Z535,Y36] 1[Z535,Y60] 1[Z536,Y32] 1[Z536,Y33] 1[Z536,Y36] 1[Z537,Y33] 1[Z537,Y60] 1[Z538,Y33] 1[Z539,Y33] 1[Z540,Y32] 1[Z540,Y33] 1[Z541,Y33] 1[Z541,Y60] 1[Z542,Y33] 1[Z542,Y60] 1[Z543,Y33] 1[Z543,Y60] 1[Z544,Y32] 1[Z544,Y33] 1[Z544,Y36] 1[Z545,Y33] 1[Z546,Y32] 1[Z546,Y33] 1[Z546,Y36] 1[Z547,Y32] 1[Z547,Y33] 1[Z548,Y32] 1[Z548,Y33] 1[Z548,Y36] 1[Z549,Y33] 1[Z550,Y32] 1[Z550,Y33] 1[Z550,Y36] 1[Z551,Y32] 1[Z551,Y33] 1[Z551,Y36] 1[Z552,Y32] 1[Z552,Y33] 1[Z552,Y36] 1[Z553,Y32] 1[Z553,Y33] 1[Z553,Y36] 1[Z554,Y33] 1[Z555,Y33] 1[Z556,Y34] 1[Z557,Y34] 1[Z558,Y35] 1[Z559,Y35] 1[Z560,Y35] 1[Z560,Y71] 1[Z561,Y35] 1[Z561,Y71] 1[Z562,Y35] 1[Z562,Y71] 1[Z563,Y36] 1[Z564,Y33] 1[Z564,Y36] 1[Z564,Y60] 1[Z565,Y37] 1[Z566,Y37] 1[Z567,Y37] 1[Z568,Y37] 1[Z569,Y37] 1[Z570,Y37] 1[Z571,Y37] 1[Z572,Y37] 1[Z573,Y38] 1[Z574,Y38] 1[Z575,Y38] 1[Z576,Y38] 1[Z577,Y38] 1[Z578,Y38] 1[Z579,Y38] 1[Z580,Y38] 1[Z581,Y38] 1[Z582,Y38] 1[Z583,Y38] 1[Z584,Y38] 1[Z585,Y38] 1[Z586,Y38] 1[Z587,Y38] 1[Z588,Y38] 1[Z589,Y38] 1[Z590,Y38] 1[Z591,Y38] 1[Z592,Y38] 1[Z593,Y38] 1[Z594,Y38] 1[Z595,Y38] 1[Z596,Y38] 1[Z597,Y39] 1[Z597,Y57] 1[Z598,Y39] 1[Z599,Y39] 1[Z600,Y40] 1[Z601,Y41] 1[Z601,Y42] 1[Z602,Y41] 1[Z602,Y42] 1[Z603,Y41] 1[Z603,Y42] 1[Z604,Y41] 1[Z605,Y41] 1[Z606,Y41] 1[Z607,Y41] 1[Z607,Y42] 1[Z608,Y41] 1[Z608,Y42] 1[Z609,Y41] 1[Z609,Y42] 1[Z610,Y42] 1[Z611,Y41] 1[Z611,Y42] 1[Z612,Y42] 1[Z613,Y41] 1[Z613,Y42] 1[Z614,Y42] 1[Z615,Y41] 1[Z615,Y42] 1[Z616,Y41] 1[Z616,Y42] 1[Z617,Y41] 1[Z617,Y42] 1[Z618,Y41] 1[Z618,Y42] 1[Z619,Y41] 1[Z619,Y42] 1[Z620,Y41] 1[Z620,Y42] 1[Z621,Y42] 1[Z622,Y41] 1[Z622,Y42] 1[Z623,Y41] 1[Z623,Y42] 1[Z624,Y42] 1[Z625,Y41] 1[Z625,Y42] 1[Z626,Y42] 1[Z627,Y41] 1[Z627,Y42] 1[Z628,Y41] 1[Z628,Y42] 1[Z629,Y42] 1[Z630,Y43] 1[Z631,Y43] 1[Z632,Y43] 1[Z633,Y43] 1[Z634,Y43] 1[Z635,Y43] 1[Z636,Y43] 1[Z637,Y43] 1[Z638,Y43] 1[Z639,Y43] 1[Z640,Y43] 1[Z641,Y29] 1[Z641,Y43] 1[Z642,Y44] 1[Z643,Y44] 1[Z643,Y45] 1[Z644,Y44] 1[Z644,Y45] 1[Z645,Y44] 1[Z645,Y45] 1[Z646,Y44] 1[Z646,Y45] 1[Z647,Y44] 1[Z647,Y45] 1[Z648,Y44] 1[Z649,Y44] 1[Z650,Y44] 1[Z650,Y45] 1[Z651,Y44] 1[Z652,Y44] 1[Z652,Y45] 1[Z653,Y44] 1[Z653,Y45] 1[Z654,Y45] 1[Z655,Y45] 1[Z656,Y44] 1[Z656,Y45] 1[Z657,Y44] 1[Z657,Y45] 1[Z658,Y44] 1[Z658,Y45] 1[Z659,Y44] 1[Z659,Y45] 1[Z660,Y44] 1[Z660,Y45] 1[Z661,Y45] 1[Z662,Y45] 1[Z663,Y44] 1[Z663,Y45] 1[Z664,Y44] 1[Z664,Y45] 1[Z665,Y44] 1[Z665,Y45] 1[Z666,Y44] 1[Z666,Y45] 1[Z667,Y44] 1[Z667,Y45] 1[Z668,Y45] 1[Z669,Y45] 1[Z670,Y45] 1[Z671,Y44] 1[Z671,Y45] 1[Z672,Y45] 1[Z673,Y44] 1[Z673,Y45] 1[Z674,Y45] 1[Z675,Y44] 1[Z675,Y45] 1[Z676,Y44] 1[Z676,Y45] 1[Z677,Y45] 1[Z678,Y45] 1[Z679,Y45] 1[Z680,Y45] 1[Z681,Y44] 1[Z681,Y45] 1[Z682,Y45] 1[Z683,Y45] 1[Z684,Y45] 1[Z685,Y45] 1[Z686,Y44] 1[Z686,Y45] 1[Z687,Y45] 1[Z688,Y44] 1[Z688,Y45] 1[Z689,Y44] 1[Z689,Y45] 1[Z690,Y44] 1[Z690,Y45] 1[Z691,Y44] 1[Z691,Y45] 1[Z692,Y44] 1[Z692,Y45] 1[Z693,Y44] 1[Z693,Y45] 1[Z694,Y44] 1[Z694,Y45] 1[Z695,Y45] 1[Z696,Y45] 1[Z697,Y44] 1[Z697,Y45] 1[Z698,Y46] 1[Z699,Y46] 1[Z700,Y46] 1[Z701,Y46] 1[Z702,Y46] 1[Z703,Y46] 1[Z704,Y46] 1[Z705,Y46] 1[Z706,Y46] 1[Z707,Y46] 1[Z708,Y46] 1[Z709,Y46] 1[Z710,Y46] 1[Z711,Y46] 1[Z712,Y46] 1[Z713,Y46] 1[Z714,Y47] 1[Z715,Y47] 1[Z716,Y47] 1[Z716,Y48] 1[Z717,Y47] 1[Z718,Y47] 1[Z719,Y47] 1[Z720,Y47] 1[Z721,Y47] 1[Z722,Y48] 1[Z723,Y48] 1[Z724,Y48] 1[Z725,Y49] 1[Z726,Y49] 1[Z727,Y49] 1[Z728,Y49] 1[Z729,Y49] 1[Z730,Y49] 1[Z731,Y50] 1[Z732,Y50] 1[Z733,Y50] 1[Z734,Y50] 1[Z735,Y50] 1[Z736,Y50] 1[Z737,Y50] 1[Z738,Y50] 1[Z739,Y50] 1[Z740,Y1] 1[Z740,Y50] 1[Z741,Y50] 1[Z742,Y50] 1[Z743,Y50] 1[Z744,Y50] 1[Z745,Y50] 1[Z746,Y50] 1[Z747,Y50] 1[Z748,Y50] 1[Z749,Y50] 1[Z750,Y50] 1[Z751,Y50] 1[Z752,Y50] 1[Z753,Y1] 1[Z753,Y50] 1[Z754,Y1] 1[Z754,Y50] 1[Z755,Y50] 1[Z756,Y1] 1[Z756,Y50] 1[Z757,Y50] 1[Z758,Y50] 1[Z759,Y50] 1[Z760,Y1] 1[Z760,Y50] 1[Z761,Y50] 1[Z762,Y50] 1[Z763,Y50] 1[Z764,Y51] 1[Z765,Y51] 1[Z766,Y51] 1[Z767,Y52] 1[Z768,Y53] 1[Z769,Y53] 1[Z770,Y53] 1[Z771,Y51] 1[Z771,Y54] 1[Z772,Y54] 1[Z773,Y54] 1[Z774,Y54] 1[Z775,Y54] 1[Z776,Y54] 1[Z777,Y51] 1[Z777,Y54] 1[Z778,Y54] 1[Z779,Y54] 1[Z780,Y54] 1[Z781,Y54] 1[Z782,Y54] 1[Z783,Y54] 1[Z784,Y54] 1[Z785,Y55] 1[Z785,Y62] 1[Z786,Y55] 1[Z786,Y62] 1[Z787,Y55] 1[Z787,Y62] 1[Z788,Y55] 1[Z788,Y62] 1[Z789,Y55] 1[Z790,Y55] 1[Z791,Y55] 1[Z791,Y62] 1[Z792,Y55] 1[Z792,Y62] 1[Z793,Y55] 1[Z794,Y55] 1[Z794,Y62] 1[Z795,Y55] 1[Z796,Y56] 1[Z797,Y56] 1[Z798,Y56] 1[Z799,Y56] 1[Z800,Y56] 1[Z801,Y56] 1[Z802,Y56] 1[Z803,Y56] 1[Z804,Y56] 1[Z805,Y56] 1[Z806,Y56] 1[Z807,Y56] 1[Z808,Y56] 1[Z809,Y57] 1[Z810,Y57] 1[Z811,Y57] 1[Z812,Y57] 1[Z813,Y57] 1[Z814,Y57] 1[Z815,Y57] 1[Z816,Y57] 1[Z817,Y57] 1[Z818,Y57] 1[Z819,Y39] 1[Z819,Y57] 1[Z820,Y57] 1[Z821,Y57] 1[Z822,Y57] 1[Z823,Y57] 1[Z824,Y57] 1[Z825,Y57] 1[Z826,Y57] 1[Z827,Y57] 1[Z828,Y57] 1[Z829,Y57] 1[Z830,Y57] 1[Z831,Y57] 1[Z832,Y57] 1[Z833,Y57] 1[Z834,Y57] 1[Z835,Y57] 1[Z836,Y57] 1[Z837,Y57] 1[Z838,Y57] 1[Z839,Y57] 1[Z840,Y57] 1[Z841,Y57] 1[Z842,Y57] 1[Z843,Y57] 1[Z844,Y57] 1[Z845,Y57] 1[Z846,Y57] 1[Z847,Y57] 1[Z848,Y57] 1[Z849,Y57] 1[Z850,Y58] 1[Z851,Y59] 1[Z851,Y61] 1[Z852,Y59] 1[Z852,Y61] 1[Z853,Y59] 1[Z854,Y59] 1[Z854,Y61] 1[Z855,Y59] 1[Z856,Y59] 1[Z856,Y61] 1[Z857,Y59] 1[Z857,Y61] 1[Z858,Y59] 1[Z858,Y61] 1[Z859,Y59] 1[Z860,Y59] 1[Z860,Y61] 1[Z861,Y59] 1[Z862,Y59] 1[Z862,Y61] 1[Z863,Y59] 1[Z864,Y59] 1[Z864,Y61] 1[Z865,Y59] 1[Z866,Y59] 1[Z866,Y61] 1[Z867,Y59] 1[Z867,Y61] 1[Z868,Y59] 1[Z869,Y59] 1[Z870,Y59] 1[Z870,Y61] 1[Z871,Y59] 1[Z871,Y61] 1[Z872,Y59] 1[Z872,Y61] 1[Z873,Y59] 1[Z873,Y61] 1[Z874,Y59] 1[Z875,Y59] 1[Z875,Y61] 1[Z876,Y59] 1[Z876,Y61] 1[Z877,Y59] 1[Z877,Y61] 1[Z878,Y59] 1[Z879,Y59] 1[Z879,Y61] 1[Z880,Y59] 1[Z881,Y59] 1[Z881,Y61] 1[Z882,Y59] 1[Z882,Y61] 1[Z883,Y59] 1[Z884,Y59] 1[Z885,Y33] 1[Z885,Y36] 1[Z885,Y60] 1[Z886,Y60] 1[Z887,Y59] 1[Z887,Y61] 1[Z888,Y61] 1[Z889,Y59] 1[Z889,Y61] 1[Z890,Y61] 1[Z891,Y59] 1[Z891,Y61] 1[Z892,Y61] 1[Z893,Y61] 1[Z894,Y59] 1[Z894,Y61] 1[Z895,Y61] 1[Z896,Y59] 1[Z896,Y61] 1[Z897,Y61] 1[Z898,Y59] 1[Z898,Y61] 1[Z899,Y61] 1[Z900,Y61] 1[Z901,Y61] 1[Z902,Y61] 1[Z903,Y59] 1[Z903,Y61] 1[Z904,Y59] 1[Z904,Y61] 1[Z905,Y59] 1[Z905,Y61] 1[Z906,Y59] 1[Z906,Y61] 1[Z907,Y59] 1[Z907,Y61] 1[Z908,Y59] 1[Z908,Y61] 1[Z909,Y59] 1[Z909,Y61] 1[Z910,Y59] 1[Z910,Y61] 1[Z911,Y61] 1[Z912,Y59] 1[Z912,Y61] 1[Z913,Y59] 1[Z913,Y61] 1[Z914,Y61] 1[Z915,Y59] 1[Z915,Y61] 1[Z916,Y59] 1[Z916,Y61] 1[Z917,Y61] 1[Z918,Y61] 1[Z919,Y61] 1[Z920,Y61] 1[Z921,Y61] 1[Z922,Y59] 1[Z922,Y61] 1[Z923,Y59] 1[Z923,Y61] 1[Z924,Y61] 1[Z925,Y61] 1[Z926,Y61] 1[Z927,Y61] 1[Z928,Y61] 1[Z929,Y59] 1[Z929,Y61] 1[Z930,Y59] 1[Z930,Y61] 1[Z931,Y59] 1[Z931,Y61] 1[Z932,Y59] 1[Z932,Y61] 1[Z933,Y59] 1[Z933,Y61] 1[Z934,Y61] 1[Z935,Y61] 1[Z936,Y59] 1[Z936,Y61] 1[Z937,Y62] 1[Z938,Y55] 1[Z938,Y62] 1[Z939,Y55] 1[Z939,Y62] 1[Z940,Y55] 1[Z940,Y62] 1[Z941,Y62] 1[Z942,Y55] 1[Z942,Y62] 1[Z943,Y55] 1[Z943,Y62] 1[Z944,Y55] 1[Z944,Y62] 1[Z945,Y55] 1[Z945,Y62] 1[Z946,Y62] 1[Z947,Y63] 1[Z948,Y64] 1[Z949,Y64] 1[Z950,Y64] 1[Z951,Y64] 1[Z952,Y64] 1[Z953,Y64] 1[Z954,Y64] 1[Z955,Y64] 1[Z956,Y64] 1[Z957,Y64] 1[Z958,Y64] 1[Z959,Y64] 1[Z960,Y64] 1[Z961,Y64] 1[Z962,Y64] 1[Z963,Y64] 1[Z964,Y64] 1[Z965,Y65] 1[Z966,Y65] 1[Z967,Y35] 1[Z967,Y66] 1[Z967,Y71] 1[Z968,Y35] 1[Z968,Y66] 1[Z968,Y71] 1[Z969,Y35] 1[Z969,Y66] 1[Z969,Y70] 1[Z969,Y71] 1[Z970,Y66] 1[Z971,Y66] 1[Z972,Y66] 1[Z972,Y68] 1[Z972,Y70] 1[Z972,Y71] 1[Z973,Y35] 1[Z973,Y66] 1[Z973,Y71] 1[Z974,Y66] 1[Z975,Y66] 1[Z975,Y68] 1[Z975,Y70] 1[Z975,Y71] 1[Z976,Y66] 1[Z976,Y70] 1[Z976,Y71] 1[Z977,Y35] 1[Z977,Y66] 1[Z977,Y71] 1[Z978,Y66] 1[Z978,Y68] 1[Z978,Y70] 1[Z978,Y71] 1[Z979,Y66] 1[Z979,Y68] 1[Z979,Y70] 1[Z979,Y71] 1[Z980,Y66] 1[Z980,Y68] 1[Z980,Y70] 1[Z981,Y67] 1[Z981,Y68] 1[Z981,Y70] 1[Z982,Y67] 1[Z982,Y68] 1[Z982,Y70] 1[Z983,Y69] 1[Z984,Y67] 1[Z984,Y68] 1[Z984,Y70] 1[Z985,Y66] 1[Z985,Y70] 1[Z985,Y71] 1[Z986,Y72] 1[Z987,Y71] 1[Z987,Y72] 1[Z988,Y71] 1[Z988,Y72] 1[Z989,Y72] 1[Z990,Y72] 1[Z991,Y71] 1[Z991,Y72] 1[Z992,Y72] 1[Z993,Y71] 1[Z993,Y72] 1[Z994,Y71] 1[Z994,Y72] 1[Z995,Y71] 1[Z995,Y72] 1[Z996,Y71] 1[Z996,Y72] 1[Z997,Y72] 1[Z998,Y71] 1[Z998,Y72] 1
;
param B := 

;
end;
